(set-info :Origin "This instance was generated by: BanditFuzz-- an RL fuzzer for SMT solvers" )
(set-info :Author "Joe Scott, Fed Mora, Vijay Ganesh" )
(set-info :Contact "Joe Scott, joseph.scott@uwaterloo.ca")
(set-logic QF_BV)
(declare-const bool_0 Bool)
(declare-const bool_1 Bool)
(declare-const bool_2 Bool)
(declare-const bool_3 Bool)
(declare-const bool_4 Bool)
(declare-const bv_0 (_ BitVec 32))
(declare-const bv_1 (_ BitVec 32))
(declare-const bv_2 (_ BitVec 32))
(declare-const bv_3 (_ BitVec 32))
(declare-const bv_4 (_ BitVec 32))
(assert (bvugt (bvxor (bvsdiv bv_2 bv_3) (bvmul #x72d63475  #x2c34f28b )) (bvand (bvsrem bv_4 #xd05b0980 ) (bvshl bv_3 bv_3))))
(assert (bvsge (bvsub (bvashr #xe74f4d08  bv_2) (bvashr #x85ddcc3c  bv_0)) (bvnor (bvsub #x4c16628f  bv_2) (bvadd #x7807f187  bv_2))))
(assert (and (and (bvult #xf75a591c  bv_1) (=> true false)) (xor (xor true bool_3) (not false))))
(assert (and (bvsge (bvshl bv_2 bv_0) (bvand #x8195c86e  bv_2)) (bvsge (bvlshr #xef0ded50  #xf3e8262c ) (bvurem bv_4 bv_2))))
(assert (bvuge (bvashr (bvadd #x996a6aff  bv_0) (bvsmod #x781a73c0  bv_3)) (bvsub (bvxor #x757cb942  bv_1) (bvxnor #xd1fd84bc  #xdbc83034 ))))
(check-sat)
(exit)
